INPUT_PARAMETERS
suffix                abacus
ntype                 7
pseudo_dir            ./
orbital_dir           ./
nspin                 1
out_chg               0
ecutwfc               100
scf_thr               1e-6
basis_type            lcao
calculation           scf
cal_force             1

smearing_method       mp
smearing_sigma        0.01
mixing_beta           0.2
mixing_gg0            1.5

gamma_only            true

