ATOMIC_SPECIES
Fe      55.8450 Fe_ONCV_PBE-1.0.upf
Li       6.9400 Li_ONCV_PBE-1.0.upf
P       30.9738 P_ONCV_PBE-1.0.upf
O       15.9990 O_ONCV_PBE-1.0.upf

NUMERICAL_ORBITAL
Fe_gga_8au_100Ry_4s2p2d1f.orb
Li_gga_7au_100Ry_4s1p.orb
P_gga_8au_100Ry_2s2p1d.orb
O_gga_7au_100Ry_2s2p1d.orb

LATTICE_CONSTANT
1.8897261258369282

LATTICE_VECTORS
   10.3377000000     0.0000000000     0.0000000000
    0.0000000000     6.0112000000     0.0000000000
    0.0000000000     0.0000000000     4.6950000000

ATOMIC_POSITIONS
Direct

Fe
0
4
      0.28220000       0.25000000       0.97380000  mag  -4.19
      0.21780000       0.75000000       0.47380000  mag   4.19
      0.78220000       0.25000000       0.52620000  mag  -4.19
      0.71780000       0.75000000       0.02620000  mag   4.19

Li
0
4
      0.00000000       0.00000000       0.00000000  mag   0.00
      0.50000000       0.00000000       0.50000000  mag   0.00
      0.50000000       0.50000000       0.50000000  mag   0.00
      0.00000000       0.50000000       0.00000000  mag   0.00

P
0
4
      0.09500000       0.25000000       0.41800000  mag   0.00
      0.40500000       0.75000000       0.91800000  mag   0.00
      0.59500000       0.25000000       0.08200000  mag   0.00
      0.90500000       0.75000000       0.58200000  mag   0.00

O
0
16
      0.09713000       0.25000000       0.74280000  mag   0.00
      0.40287000       0.75000000       0.24280000  mag   0.00
      0.59713000       0.25000000       0.75720000  mag   0.00
      0.90287000       0.75000000       0.25720000  mag   0.00
      0.45730000       0.25000000       0.20670000  mag   0.00
      0.04270000       0.75000000       0.70670000  mag   0.00
      0.95730000       0.25000000       0.29330000  mag   0.00
      0.54270000       0.75000000       0.79330000  mag   0.00
      0.16600000       0.04640000       0.28510000  mag   0.00
      0.33400000       0.95360000       0.78510000  mag   0.00
      0.33400000       0.54640000       0.78510000  mag   0.00
      0.16600000       0.45360000       0.28510000  mag   0.00
      0.66600000       0.45360000       0.21490000  mag   0.00
      0.83400000       0.54640000       0.71490000  mag   0.00
      0.83400000       0.95360000       0.71490000  mag   0.00
      0.66600000       0.04640000       0.21490000  mag   0.00

