ATOMIC_SPECIES
Ni 58.693400 Ni_ONCV_PBE-1.2.upf
O 15.999400 O_ONCV_PBE-1.2.upf

NUMERICAL_ORBITAL
Ni_gga_10au_6s3p3d2f.orb
O_gga_10au_3s3p2d.orb

LATTICE_CONSTANT
1.889726

LATTICE_VECTORS
    4.17000000000     2.08500000000     2.08500000000
    2.08500000000     4.17000000000     2.08500000000
    2.08500000000     2.08500000000     4.17000000000

ATOMIC_POSITIONS
Direct

Ni
0.000000
2
    0.00000000000     0.00000000000     0.00000000000 mag   2.0
    0.50000000000     0.50000000000     0.50000000000 mag   2.0

O
0.000000
2
    0.25000000000     0.25000000000     0.25000000000 mag   0.0
    0.75000000000     0.75000000000     0.75000000000 mag   0.0
