ATOMIC_SPECIES
Fe  55.8450 Fe_ONCV_PBE-1.2.upf upf201

NUMERICAL_ORBITAL
Fe_gga_7au_100Ry_4s2p2d1f.orb

LATTICE_CONSTANT
1.8897260000

LATTICE_VECTORS
        2.4575092829        0.0000000001        0.0000000004
       -0.8191697608        2.3169619723       -0.0000000001
       -0.8191697607       -1.1584809862        2.0065479272

ATOMIC_POSITIONS
Direct

Fe #label
0.0000   #magnetism
1 #number of atoms
        0.0000000000        0.0000000000        0.0000000000 m 1 1 1 mag  2.3652
