INPUT_PARAMETERS
suffix                Si
ntype                 1
pseudo_dir            ./
orbital_dir           ./
nspin                 1
ecutwfc               100
scf_thr               1e-8
basis_type            lcao
calculation           scf
kspacing              0.14

smearing_method       gaussian
smearing_sigma        0.00001
