ATOMIC_SPECIES
Si 28.085500 Si_ONCV_PBE-1.0.upf

NUMERICAL_ORBITAL
Si_gga_6au_100Ry_2s2p1d.orb

LATTICE_CONSTANT
1.000000

LATTICE_VECTORS
    0.00000000000     5.12990932080     5.12990932080
    5.12990932080     0.00000000000     5.12990932080
   10.25981864160    10.25981864160     0.00000000000

ATOMIC_POSITIONS
Direct

Si
0.000000
4
    0.75000000000     0.75000000000     0.37500000000 1 1 1 
    0.50000000000     0.50000000000     0.25000000000 1 1 1 
    0.75000000000     0.75000000000     0.87500000000 1 1 1 
    0.50000000000     0.50000000000     0.75000000000 1 1 1 
