ATOMIC_SPECIES
Si  28.0855 Si_ONCV_PBE-1.0.upf upf201

NUMERICAL_ORBITAL
Si_gga_6au_100Ry_2s2p1d.orb

LATTICE_CONSTANT
1.0000000000

LATTICE_VECTORS
        0.0000000000        5.1299093208        5.1299093208
        5.1299093208        0.0000000000        5.1299093208
        5.1299093208        5.1299093208        0.0000000000

ATOMIC_POSITIONS
Direct

Si #label
0.0000   #magnetism
2 #number of atoms
        0.7500000000        0.7500000000        0.7500000000 m 1 1 1
        0.5000000000        0.5000000000        0.5000000000 m 1 1 1
