ATOMIC_SPECIES
Si   28.085  Si_ONCV_PBE-1.0.upf

NUMERICAL_ORBITAL
Si_gga_6au_100Ry_2s2p1d.orb

LATTICE_CONSTANT
1.889726

LATTICE_VECTORS
2.736138380000  0.000000000000  0.000000000000
1.368069190000  2.369565345350  0.000000000000
1.368069190000  0.789855115117  2.234047632215

ATOMIC_POSITIONS
Direct

Si
0.000
1
0.000000000000  0.000000000000  0.000000000000  1  1  1  mag  0.0
