ATOMIC_SPECIES
H   1.0079 H.upf upf201

NUMERICAL_ORBITAL
H_gga_6au_100Ry_2s1p.orb

LATTICE_CONSTANT
1.8897260000

LATTICE_VECTORS
        5.0000000000        0.0000000000        0.0000000000
        0.0000000000        5.0000000000        0.0000000000
        0.0000000000        0.0000000000        5.0000000000

ATOMIC_POSITIONS
Direct

H #label
0.0000   #magnetism
2 #number of atoms
        0.0000000000        0.0000000000        0.9986655945 m 1 1 1
        0.0000000000        0.0000000000        0.1493344055 m 1 1 1
