ATOMIC_SPECIES
Si  28.0855 Si.upf upf201

NUMERICAL_ORBITAL
Si_gga_7au_100Ry_2s2p1d.orb

LATTICE_CONSTANT
1.8897260000

LATTICE_VECTORS
        2.7373158181        2.7373158181       -0.0000000000
        2.7373158181        0.0000000000        2.7373158181
        0.0000000000        2.7373158181        2.7373158181

ATOMIC_POSITIONS
Direct

Si #label
0.0000   #magnetism
2 #number of atoms
        0.0000000000        0.0000000000        0.0000000000 m 1 1 1
        0.2500000000        0.2500000000        0.2500000000 m 1 1 1
