ATOMIC_SPECIES
Zn 65.390000 Zn_ONCV_PBE_FR-1.0.upf
O 15.999400 O.upf

NUMERICAL_ORBITAL
Zn_gga_9au_150Ry_4s2p2d1f.orb
O_gga_6au_100Ry_2s2p1d.orb

LATTICE_CONSTANT
1.889726

LATTICE_VECTORS
    3.23735100000     0.00000000000     0.00000000000
   -1.61867550000     2.80362820697     0.00000000000
    0.00000000000     0.00000000000     5.22206100000

ATOMIC_POSITIONS
Cartesian

Zn
0.000000
2
   -0.00000161868     1.86908640585     0.00309146011 1 1 1 
    1.61867711868     0.93454180111     2.61412196011 1 1 1 

O
0.000000
2
   -0.00000161868     1.86908640585     1.98291055880 1 1 1 
    1.61867711868     0.93454180111     4.59394105880 1 1 1 
