ATOMIC_SPECIES
Zn 65.390000 Zn_ONCV_PBE_FR-1.0.upf
O 15.999400 O.upf

NUMERICAL_ORBITAL
Zn_gga_9au_150Ry_4s2p2d1f.orb
O_gga_6au_100Ry_2s2p1d.orb

LATTICE_CONSTANT
1.889726

LATTICE_VECTORS
    3.23735102000     0.00000000000     0.00000000000
   -1.61867551000     2.80362822429     0.00000000000
    0.00000000000     0.00000000000    20.88824520000

ATOMIC_POSITIONS
Cartesian

Zn
0.000000
2
   -0.00000001619     1.86908549220     4.23215023161 1 1 1 
    1.61867552619     0.93454273208     1.62111958161 1 1 1 

O
0.000000
2
   -0.00000001619     1.86908549220     0.98991106839 1 1 1 
    1.61867552619     0.93454273208     3.60094171839 1 1 1 
