ATOMIC_SPECIES
C 12.011  C_ONCV_PBE-1.0.upf

NUMERICAL_ORBITAL
C_gga_6au_100Ry_2s2p1d.orb

LATTICE_CONSTANT
1.000000

LATTICE_VECTORS
    0.000000000     3.400000000     3.400000000
    3.400000000     0.000000000     3.400000000
    3.400000000     3.400000000     0.000000000

ATOMIC_POSITIONS
Direct

C
0.000000
2
    0.75000000000    -0.25000000000     0.75000000000 
    0.50000000000     0.50000000000    -0.50000000000 
