ATOMIC_SPECIES
C   12.011        C_ONCV_PBE-1.0.upf
O   15.999        O_ONCV_PBE-1.0.upf

NUMERICAL_ORBITAL
C_gga_7au_100Ry_2s2p1d.orb
O_gga_7au_100Ry_2s2p1d.orb

LATTICE_CONSTANT
1.8897261258369282

LATTICE_VECTORS
10.0000000000000      0.00000000000000      0.00000000000000      
0.00000000000000      10.0000000000000      0.00000000000000      
0.00000000000000      0.00000000000000      12.3573160000000      

ATOMIC_POSITIONS
Direct

C
0.00000000000000
1
0.50000000000000 0.50000000000000 0.50000000000000 1 1 1 mag 0.0 

O
0.00000000000000
2
0.50000000000000 0.50000000000000 0.59538139188200 1 1 1 mag 0.0 
0.50000000000000 0.50000000000000 0.40461860811800 1 1 1 mag 0.0 


