ATOMIC_SPECIES
O  15.999  O_ONCV_PBE-1.0.upf
H  1.008  H_ONCV_PBE-1.0.upf

NUMERICAL_ORBITAL
O_gga_8au_100Ry_2s2p1d.orb
H_gga_7au_100Ry_2s1p.orb

LATTICE_CONSTANT
1.889727000000

LATTICE_VECTORS
10.00000000000  0.000000000000  0.000000000000
0.000000000000  10.00000000000  0.000000000000
0.000000000000  0.000000000000  10.00000000000

ATOMIC_POSITIONS
Cartesian

O
0
1
4.000000000000  5.000000000000  6.00000000000  

H
0
2
3.200000000000  5.600000000000  6.00000000000
4.800000000000  5.600000000000  6.00000000000

