ATOMIC_SPECIES
Mg 24.305 Mg_ONCV_PBE-1.0.upf upf201
O 15.999 O_ONCV_PBE-1.0.upf upf201

NUMERICAL_ORBITAL
Mg_gga_8au_100Ry_4s2p1d.orb
O_gga_8au_100Ry_2s2p1d.orb

LATTICE_CONSTANT
1.8897259886

LATTICE_VECTORS
    3.3350932244     0.0000000000     0.0000000000 #latvec1
    0.0000000000     3.3350932244     0.0000000000 #latvec2
    0.0000000000     0.0000000000     3.3350932244 #latvec3

ATOMIC_POSITIONS
Direct

Mg #label
0 #magnetism
4 #number of atoms
    0.0000000000     0.0000000000     0.0000000000 m  1  1  1
    0.0000000000     0.5000000000     0.5000000000 m  1  1  1
    0.5000000000     0.0000000000     0.5000000000 m  1  1  1
    0.5000000000     0.5000000000     0.0000000000 m  1  1  1

O #label
0 #magnetism
4 #number of atoms
    0.5000000000     0.0000000000     0.0000000000 m  1  1  1
    0.5000000000     0.5000000000     0.5000000000 m  1  1  1
    0.0000000000     0.0000000000     0.5000000000 m  1  1  1
    0.0000000000     0.5000000000     0.0000000000 m  1  1  1

