ATOMIC_SPECIES
Na 22.989700 Na.upf
Cl 35.453000 Cl.upf

NUMERICAL_ORBITAL
Na_gga_10au_100Ry_4s2p1d.orb
Cl_gga_6au_100Ry_2s2p1d.orb

LATTICE_CONSTANT
1.8897261258369282

LATTICE_VECTORS
3.88908729652600      0.00000000000000      0.00000000000000      
1.94454364826300      3.36804839632700      0.00000000000000      
1.94454364826300      1.12268279877600      3.17542648054300      

ATOMIC_POSITIONS
Direct

Na
0.00000000000000
1
0.00000000000000 0.00000000000000 0.00000000000000 1 1 1 mag 0.0 

Cl
0.00000000000000
1
0.50000000000000 0.50000000000000 0.50000000000000 1 1 1 mag 0.0
